
Gurobi 13.0.2 (win64) logging started Thu Jul 23 07:16:50 2026

Set parameter LogFile to value "E:\codes\ExactEBRP\results\gf_cplex_equivalent_gurobi_replica_round28\runs\stage2__high_imbalance_seed6202__c3_replica__300s\external\native_logs\R.0_lp.gurobi.log"
Gurobi Optimizer version 13.0.2 build v13.0.2rc1 (win64 - Windows 10.0 (19045.2))

CPU model: 12th Gen Intel(R) Core(TM) i7-12700KF, instruction set [SSE2|AVX|AVX2]
Thread count: 12 physical cores, 20 logical processors, using up to 1 threads

Non-default parameters:
TimeLimit  247.0822829
MIPGap  0
MIPGapAbs  0
LogToConsole  0
Threads  1

Optimize a model with 93009 rows, 18187 columns and 665195 nonzeros (Min)
Model fingerprint: 0x45af2369
Model has 51 linear objective coefficients
Coefficient statistics:
  Matrix range     [1e-02, 2e+04]
  Objective range  [1e-02, 1e+00]
  Bounds range     [5e-01, 5e+04]
  RHS range        [5e-01, 1e+05]

Presolve removed 15836 rows and 267 columns
Presolve time: 0.34s
Presolved: 17632 rows, 94496 columns, 454264 nonzeros

Iteration    Objective       Primal Inf.    Dual Inf.      Time
       0      handle free variables                          0s
   10659    1.2677463e+00   0.000000e+00   2.470096e+07      5s
   17039    3.0386088e+00   0.000000e+00   1.080869e+07     10s
   23716    5.2712649e+00   0.000000e+00   3.515186e+06     15s
Warning: very big Kappa = 1.36057e+13, try parameter NumericFocus

Solved in 25054 iterations and 15.97 seconds (47.18 work units)
Infeasible model

User-callback calls 25399, time in user-callback 0.01 sec
